# 97815
param k := 6;
param n := 60;
param s := 1;
set E :=  (0,47) (0,53) (1,7) (1,10) (1,36) (2,9) (2,26) (3,21) (3,44) (3,50) (4,18) (5,9) (5,37) (6,8) (7,40) (8,11) (8,29) (8,31) (8,38) (9,22) (9,50) (10,41) (11,21) (11,48) (11,56) (12,40) (13,52) (14,16) (14,18) (14,20) (14,51) (15,21) (15,40) (15,45) (16,21) (16,34) (16,49) (17,31) (17,32) (17,39) (18,32) (18,57) (19,52) (19,54) (20,23) (21,22) (23,33) (23,39) (24,44) (25,52) (26,50) (27,30) (28,30) (28,59) (30,46) (31,53) (32,58) (35,37) (35,45) (35,54) (36,52) (37,59) (38,44) (42,43) (42,54) (45,56) (52,55);